c Output_time 26.03.2020 18:15:17_+0100 1585242917006179602
c ** Program information **
c program_name                          "QBRG_debug"
c version                               "0.3.20"
c date                                  "25.3.2020"
c gid_id                                "673970833836058123f633335630c185360d632e"
c author                                "Oliver Kullmann"
c url                                   "https://github.com/OKullmann/oklibrary/blob/master/Satisfiability/Transformers/Generators/Random/QBRG.cpp"
c ** Machine information **
c machine_name                          "chyna-Lenovo-G50-70"
c bogomips                              3791.08
c ** Compilation information **
c compiler_version                      "g++ 7.5.0"
c compilation_date                      "Mar_26_2020 11:16:30"
c compilation_options                   "--std=c++17 -pedantic -fmax-errors=5 -Wall -Wextra -g -D_GLIBCXX_DEBUG"
c NDEBUG                                0
c OPTIMIZE                              0
c ** Parameters **
c command-line                          "./QBRG_debug" "a40 e40 a40 40" "361*1,1|2-2,1|3-3,1|4-4,1" "" "1,t" ""
c output                                "QuBlRaGe_160_361_1585242917006010267.qdimacs"
c options                               "filtered,renamed"
c num_quantifier_blocks                 4
c  quantifier_blocks                    1:a1-40 2:e41-80 3:a81-120 4:e121-160
c num_clause-blocks                     1
c  clause-blocks                        361 * {1-40,1,1/2} | {41-80,1,1/2} | {81-120,1,1/2} | {121-160,1,1/2}
c num_e-seeds                           37+2=39
c  e-seeds                              1 0 1 0 5 160 2 40 0 40 1 40 0 40 1 361 4 1 1 1 1 2 2 2 1 1 2 3 3 1 1 2 4 4 1 1 2 1 1585242917006009534
p cnf 160 361
a 1 2 3 4 5 6 7 8 9 10 11 12 13 14 15 16 17 18 19 20 21 22 23 24 25 26 27 28 29 30 31 32 33 34 35 36 37 38 39 40 0
e 41 42 43 44 45 46 47 48 49 50 51 52 53 54 55 56 57 58 59 60 61 62 63 64 65 66 67 68 69 70 71 72 73 74 75 76 77 78 79 80 0
a 81 82 83 84 85 86 87 88 89 90 91 92 93 94 95 96 97 98 99 100 101 102 103 104 105 106 107 108 109 110 111 112 113 114 115 116 117 118 119 120 0
e 121 122 123 124 125 126 127 128 129 130 131 132 133 134 135 136 137 138 139 140 141 142 143 144 145 146 147 148 149 150 151 152 153 154 155 156 157 158 159 160 0
-30 -51 -87 -121 0
8 45 91 -121 0
31 -43 97 -121 0
2 -74 -102 -121 0
1 -63 -112 -121 0
-28 -53 114 -121 0
20 -59 117 -121 0
20 -53 -97 121 0
-40 77 99 121 0
24 68 108 121 0
7 72 -85 -122 0
-9 -42 85 -122 0
29 -54 -88 -122 0
-5 51 104 -122 0
-18 46 119 -122 0
-30 64 92 122 0
-37 74 -92 -123 0
38 -74 -95 -123 0
-5 -75 -101 -123 0
10 71 103 -123 0
13 46 104 -123 0
-30 -71 104 -123 0
-37 72 -82 123 0
1 77 -88 123 0
-25 -46 97 123 0
4 59 99 123 0
-30 -62 101 123 0
17 -66 101 123 0
20 60 102 123 0
-21 -73 -120 123 0
-5 -80 -88 -124 0
-36 45 88 -124 0
-16 -63 91 -124 0
-19 -64 97 -124 0
26 -49 -102 -124 0
23 -70 -111 -124 0
35 -66 111 -124 0
30 64 -89 124 0
-22 -50 -92 124 0
-23 75 -104 124 0
16 71 85 -125 0
-1 59 -112 -125 0
17 -62 120 -125 0
8 -57 -85 125 0
-10 69 -93 125 0
-18 -71 -98 125 0
-1 -46 -100 125 0
29 71 -109 125 0
-39 -61 110 125 0
-33 57 -111 125 0
26 77 -83 -126 0
-3 60 100 -126 0
39 -50 101 -126 0
-2 -58 -104 -126 0
10 68 106 -126 0
-27 -66 -117 -126 0
30 79 -119 -126 0
-26 70 -120 -126 0
34 77 -91 126 0
-27 74 109 126 0
-15 -64 118 126 0
40 -72 84 -127 0
-14 -52 -110 -127 0
12 -58 -115 -127 0
-27 -52 -118 -127 0
12 -53 119 -127 0
21 -69 99 127 0
17 41 -108 127 0
31 -78 117 127 0
25 66 84 -128 0
32 -58 -85 -128 0
-9 64 -94 -128 0
-23 79 100 -128 0
-33 51 -111 -128 0
6 51 -87 128 0
34 -54 102 128 0
5 61 105 128 0
-19 64 -108 128 0
-9 57 -113 128 0
-11 -74 119 128 0
-3 57 -83 -129 0
-4 78 87 -129 0
4 70 94 -129 0
13 -54 100 -129 0
12 -43 -114 -129 0
-3 61 -117 -129 0
-18 77 118 -129 0
10 77 100 129 0
-16 -79 -105 129 0
12 -53 113 129 0
15 -58 -116 129 0
14 -62 89 -130 0
30 60 105 -130 0
27 -55 107 -130 0
-31 67 87 130 0
-31 68 114 130 0
26 70 -88 -131 0
-11 54 88 -131 0
6 57 104 -131 0
10 -46 105 -131 0
-38 43 -99 131 0
16 46 -111 131 0
-14 45 -116 131 0
-26 -46 101 -132 0
18 80 96 132 0
-19 76 97 132 0
34 77 -104 132 0
-17 -64 -111 132 0
24 -71 -114 132 0
-31 -68 -82 -133 0
-38 64 -91 -133 0
-18 -76 -93 -133 0
-26 -47 -109 -133 0
6 69 109 -133 0
31 61 111 -133 0
-27 75 117 -133 0
-30 -71 -83 133 0
40 50 85 133 0
-14 -68 91 133 0
-19 -52 94 133 0
-28 -42 103 133 0
-18 43 -106 133 0
1 49 -119 133 0
5 -76 82 -134 0
-18 -71 -86 -134 0
-11 48 103 -134 0
38 -58 109 -134 0
22 63 119 -134 0
-20 -61 -99 134 0
31 -79 109 134 0
-33 -71 -100 -135 0
-30 56 -103 -135 0
-6 -79 116 -135 0
23 54 -117 135 0
2 -50 94 -136 0
3 51 -108 -136 0
38 -64 -117 -136 0
11 52 118 -136 0
8 77 88 136 0
-36 -66 107 136 0
35 -73 95 -137 0
10 -60 97 -137 0
-12 43 -99 -137 0
29 75 -106 -137 0
35 80 107 -137 0
13 43 -120 -137 0
3 -53 86 137 0
22 60 -91 137 0
-35 -60 -92 137 0
-20 -47 -97 137 0
18 42 -98 137 0
-11 -44 100 137 0
-12 71 -87 -138 0
-4 79 -102 -138 0
39 56 107 -138 0
15 74 81 138 0
24 -66 96 138 0
24 -50 107 138 0
28 49 110 138 0
-35 -58 111 138 0
36 65 84 -139 0
22 -42 85 -139 0
-1 73 -97 -139 0
22 78 104 -139 0
21 -76 108 -139 0
22 -58 -109 -139 0
12 -43 -82 139 0
12 57 96 139 0
-12 -54 103 139 0
-8 -70 -112 139 0
-15 59 -119 139 0
-16 44 120 139 0
23 -62 84 -140 0
14 -70 106 -140 0
-32 -67 -109 -140 0
-20 46 109 -140 0
-14 66 -116 -140 0
5 -52 116 -140 0
-25 -46 -117 -140 0
4 75 120 -140 0
-38 -57 -81 140 0
6 54 82 140 0
-31 79 -87 140 0
4 66 101 140 0
15 66 -109 140 0
-32 -72 105 -141 0
-16 -69 92 141 0
30 -62 99 141 0
24 -65 109 141 0
-12 -43 117 141 0
34 -75 -120 141 0
12 76 -85 -142 0
-22 -70 97 -142 0
14 -76 -101 -142 0
-19 65 -105 -142 0
-5 62 108 142 0
7 -71 -112 142 0
29 64 111 -143 0
38 63 85 143 0
20 62 -104 143 0
12 -49 108 143 0
1 -51 119 143 0
-25 49 83 -144 0
21 48 -85 -144 0
-28 -75 99 -144 0
-13 -46 -113 -144 0
16 -41 91 144 0
-26 69 106 144 0
-12 -51 -108 144 0
24 77 -116 144 0
14 72 -119 144 0
19 -49 -100 -145 0
11 -46 100 -145 0
-29 -71 -103 -145 0
-21 -73 105 -145 0
16 45 -115 -145 0
-25 -62 118 -145 0
-4 -64 120 -145 0
25 -72 -100 145 0
-11 55 103 145 0
3 41 -105 145 0
-25 45 108 145 0
5 75 -117 145 0
-22 43 119 145 0
12 -48 95 -146 0
8 -57 95 -146 0
-25 72 107 -146 0
32 -74 -114 -146 0
1 73 -81 146 0
-2 58 -87 146 0
30 -61 -101 146 0
18 -73 101 146 0
-6 -59 -104 146 0
-30 -67 115 146 0
-5 -73 116 -147 0
-27 -72 94 147 0
27 50 -99 147 0
23 68 -101 147 0
34 57 -91 -148 0
-18 -46 97 -148 0
5 -51 -102 -148 0
9 41 -104 -148 0
38 -61 -117 -148 0
30 -60 -120 -148 0
-11 54 87 148 0
18 -44 -100 148 0
-19 71 -103 148 0
36 73 -110 148 0
-32 -70 -120 148 0
3 -44 -94 -149 0
-14 -50 -100 -149 0
21 47 104 -149 0
-38 -70 -107 -149 0
-30 80 116 -149 0
17 -49 -84 149 0
-4 49 -85 149 0
-17 50 86 149 0
-18 59 89 149 0
-33 43 92 149 0
-22 49 95 149 0
-36 -45 96 149 0
-14 79 120 149 0
-11 -67 -113 -150 0
-40 -50 -89 150 0
40 -47 -92 150 0
-2 -75 -97 150 0
37 -49 -100 150 0
-21 55 -101 150 0
-34 58 -118 150 0
-11 72 94 -151 0
4 75 -96 -151 0
38 -68 -83 151 0
14 42 -89 151 0
-16 42 -98 151 0
-10 52 104 151 0
24 51 -117 151 0
-37 64 120 151 0
-18 69 -84 -152 0
-1 72 91 -152 0
3 -53 -92 -152 0
-32 73 -98 -152 0
-35 55 113 -152 0
22 80 -115 -152 0
-2 -52 -82 152 0
34 -57 94 152 0
-7 -43 111 152 0
-24 -67 113 152 0
-25 -47 81 -153 0
-16 -67 -90 -153 0
40 60 -91 -153 0
-18 -66 -91 -153 0
-3 -68 -116 -153 0
-10 78 -117 -153 0
-16 -48 -110 153 0
-4 -53 -120 153 0
34 -77 -94 -154 0
-12 -78 94 -154 0
3 -69 -104 -154 0
4 70 -107 -154 0
-13 80 -81 154 0
18 -53 -116 154 0
9 60 116 154 0
5 80 -82 -155 0
-15 79 -95 -155 0
-15 -53 100 -155 0
-17 -70 100 -155 0
-36 -51 -110 -155 0
21 57 -112 -155 0
20 -80 89 155 0
31 -69 -98 155 0
29 -70 -103 155 0
-11 -50 108 155 0
39 60 113 155 0
32 -56 93 -156 0
-17 -78 113 -156 0
-30 -52 87 156 0
-9 -54 -91 156 0
-7 -60 97 156 0
-17 42 -92 -157 0
-1 77 -115 -157 0
28 58 -83 157 0
17 -58 -89 157 0
-22 76 97 157 0
-11 -45 -101 157 0
-32 74 112 157 0
-19 73 -88 -158 0
30 80 97 -158 0
-21 80 102 -158 0
-35 -71 -103 -158 0
24 76 107 -158 0
-24 66 -89 158 0
-35 57 96 158 0
-32 -71 -97 158 0
-10 45 98 158 0
20 -49 -99 158 0
24 64 -107 158 0
-18 -69 116 158 0
-9 -61 -118 158 0
-1 -47 118 158 0
-12 68 -120 158 0
11 60 -90 -159 0
-34 75 -101 -159 0
5 -80 -114 -159 0
29 71 -119 -159 0
14 45 81 159 0
-40 -73 85 159 0
-24 -64 -89 159 0
-24 -57 -97 159 0
33 67 97 159 0
-21 -50 -108 159 0
9 -61 -118 159 0
-36 -48 119 159 0
32 -76 -103 -160 0
28 77 -105 -160 0
-37 76 -111 -160 0
6 71 -87 160 0
4 -53 94 160 0
25 -74 99 160 0
22 -79 99 160 0
-12 51 -109 160 0
-8 60 119 160 0
